&control
 indir = %%INDIR%%
 outdir = './'
 filenumber = %%FILECOUNT%%
 debug = .false.
/

&filelist
 filenames = %%FILELIST%%
/